61
125
87	4
86	4
85	5
84	6
83	2
82	2
81	5
80	2
79	1
78	4
77	5
76	5
75	4
74	2
73	2
72	2
71	2
70	3
69	2
68	2
67	5
66	2
65	3
64	4
63	2
62	6
61	4
59	3
58	7
57	3
56	5
55	3
54	2
53	5
52	4
51	1
50	1
49	4
48	2
47	3
46	1
45	2
44	2
43	4
42	1
41	3
39	8
38	5
37	6
36	2
35	3
34	4
33	5
32	2
31	4
30	2
29	1
28	1
27	3
26	4
25	4
